;; Mutation-Based Equivalence Benchmark
;; Source:     AutomatArk / instance11495.smt2
;; Mutations:  literal_char_inc, bound_lower_dec, range_expand_hi
;; Status:     sat
;;
;; Original regex vs mutated regex
;; Equivalence check: unsat ⟺ L(R1) = L(R2)

(set-info :smt-lib-version 2.6)
(set-info :category "mutation")
(set-info :status sat)
(set-logic QF_S)


;; R1: original
;; R2: mutated (literal_char_inc, bound_lower_dec, range_expand_hi)
(assert
  (not
    (=
      (re.++ (re.union (re.++ (str.to_re "(") (re.range "2" "9")) (re.range "2" "9")) (re.union ((_ re.loop 2 2) (re.range "0" "9")) (re.++ ((_ re.loop 2 2) (re.range "0" "9")) (str.to_re ")"))) (re.opt (re.union (str.to_re "-") re.allchar (str.to_re " ") (str.to_re "\u{9}") (str.to_re "\u{a}") (str.to_re "\u{c}") (str.to_re "\u{d}"))) ((_ re.loop 3 3) (re.range "0" "9")) (re.opt (re.union (str.to_re "-") re.allchar (str.to_re " ") (str.to_re "\u{9}") (str.to_re "\u{a}") (str.to_re "\u{c}") (str.to_re "\u{d}"))) ((_ re.loop 4 4) (re.range "0" "9")) (str.to_re "\u{a}"))
      (re.++ (re.union (re.++ (str.to_re "(") (re.range "2" ":")) (re.range "2" "9")) (re.union ((_ re.loop 1 2) (re.range "0" "9")) (re.++ ((_ re.loop 2 2) (re.range "0" "9")) (str.to_re ")"))) (re.opt (re.union (str.to_re "-") re.allchar (str.to_re " ") (str.to_re "\u{9}") (str.to_re "\u{a}") (str.to_re "\u{c}") (str.to_re "\u{d}"))) ((_ re.loop 3 3) (re.range "0" "9")) (re.opt (re.union (str.to_re ".") re.allchar (str.to_re " ") (str.to_re "\u{9}") (str.to_re "\u{a}") (str.to_re "\u{c}") (str.to_re "\u{d}"))) ((_ re.loop 4 4) (re.range "0" "9")) (str.to_re "\u{a}")))))

(check-sat)
(exit)
